benchmarks/clamp_value/easy.solution
Problem: clamp_value
Difficulty: easy
Type: DEBUG SOLUTION (Expected)
Status: VERIFIED
Solution: ifelse(x < 0, 0, ifelse(x > 10, 10, x))

Verification Result:
    ✓ VERIFIED: All constraints satisfied
Z3 Status: unsat
